
Gurobi 10.0.1 (linux64) logging started Sun Nov 26 15:48:26 2023

Set parameter LogFile to value "ArtificialInstance/ExperimentV2/S2T5K2/AdRo/gurobiDoRo50.txt"
Gurobi Optimizer version 10.0.1 build v10.0.1rc0 (linux64)

CPU model: AMD EPYC 7H12 64-Core Processor, instruction set [SSE2|AVX|AVX2]
Thread count: 128 physical cores, 128 logical processors, using up to 32 threads

Academic license 656792 - for non-commercial use only - registered to b.___@student.vu.nl
Optimize a model with 8474 rows, 7930 columns and 30719 nonzeros
Model fingerprint: 0x61eedb48
Variable types: 1 continuous, 7929 integer (7929 binary)
Coefficient statistics:
  Matrix range     [1e+00, 4e+01]
  Objective range  [1e+00, 2e+01]
  Bounds range     [1e+00, 1e+00]
  RHS range        [1e+00, 1e+00]
Presolve removed 4288 rows and 3982 columns
Presolve time: 0.10s
Presolved: 4186 rows, 3948 columns, 15465 nonzeros
Variable types: 1 continuous, 3947 integer (3947 binary)

Root relaxation: objective 8.405488e+01, 1198 iterations, 0.04 seconds (0.03 work units)

    Nodes    |    Current Node    |     Objective Bounds      |     Work
 Expl Unexpl |  Obj  Depth IntInf | Incumbent    BestBd   Gap | It/Node Time

H    0     0                      84.0548777   51.71523  38.5%     -    0s
     0     0          -    0        84.05488   84.05488  0.00%     -    0s

Explored 1 nodes (2320 simplex iterations) in 0.21 seconds (0.15 work units)
Thread count was 32 (of 128 available processors)

Solution count 1: 84.0549 

Optimal solution found (tolerance 1.00e-04)
Best objective 8.405487772466e+01, best bound 8.405487772466e+01, gap 0.0000%
